#----------------------- force field parameters --------------------------------#

#------------------------ non-bonding interactions -----------------------------#
  pair_coeff      1 1 lj/charmm/coul/long 0.0157 1.06907846177
  pair_coeff      2 2 lj/charmm/coul/long 0.2100 2.95992190115
  pair_coeff      3 3 lj/charmm/coul/long 0.0860 3.39966950842
  pair_coeff      4 4 lj/charmm/coul/long 0.1700 3.24999852378
  pair_coeff      5 5 lj/charmm/coul/long 0.1700 3.24999852378
#-------------------------------------------------------------------------------#


#-------------------------------- bonds ----------------------------------------#
  bond_coeff      1 harmonic 478.2 1.3450
  bond_coeff      2 harmonic 648.0 1.2140
  bond_coeff      3 harmonic 410.2 1.0090
#-------------------------------------------------------------------------------#


#------------------------------- angles ----------------------------------------#
  angle_coeff     1 harmonic 74.80 113.38
  angle_coeff     2 harmonic 75.83 122.03
  angle_coeff     3 harmonic 49.21 118.46
  angle_coeff     4 harmonic 39.73 117.85
#-------------------------------------------------------------------------------#


#----------------------------- dihedrals ---------------------------------------#
  dihedral_coeff  1 fourier 1 2.5 2 180.0
  dihedral_coeff  2 fourier 2 2.5 2 180.0 2.0 1 0.0
#-------------------------------------------------------------------------------#


#---------------------------- improper angles ----------------------------------#
  improper_coeff  1 cvff 10.5 -1 2
  improper_coeff  2 cvff 1.1 -1 2
#-------------------------------------------------------------------------------#

