#-------------------------------------------------------------------------------#
#
# definition of functions used for the various interactions in the force field
#
#-------------------------------------------------------------------------------#


#----------------- molecule attributes and units -------------------------------#
  atom_style      full
  units           real
#-------------------------------------------------------------------------------#

#-------------------------------- bonds ----------------------------------------#
  bond_style      hybrid harmonic
#-------------------------------------------------------------------------------#


#------------------------------- angles ----------------------------------------#  
  angle_style     hybrid harmonic
#-------------------------------------------------------------------------------#
  

#----------------------------- dihedrals ---------------------------------------#
  dihedral_style  hybrid fourier
#-------------------------------------------------------------------------------#


#---------------------------- improper angles ----------------------------------#
  improper_style  hybrid cvff
#-------------------------------------------------------------------------------#


#------------------------ non-bonding interactions -----------------------------#
  pair_style      hybrid lj/charmm/coul/long 9.0 10.0 10.0
  kspace_style    pppm 0.0001
  pair_modify     mix arithmetic
  special_bonds   amber
#-------------------------------------------------------------------------------#

