  atom_style full
  units           real
  bond_style      hybrid harmonic
  angle_style     hybrid harmonic
  dihedral_style  hybrid fourier
  improper_style  hybrid harmonic
  pair_style      hybrid lj/charmm/coul/charmm 9.0 10.0
  pair_modify     mix arithmetic
  special_bonds   amber
